md conp conse qok nomod pres spat 
ensemble npt 0.005 0.005
pressure 0.000000 GPa
temperature 298.000000 K

equilibration 0.2 ps
timestep 1 fs
production 1 ps
write 100
sample 100


title
GULP calculation from Materials Studio for tridymite_NPT
end


cell
30.060000 10.020000 8.180000 90.000000 90.000000 120.000000

fractional
Si1 core 0.067870 0.320373 0.443336 4.000000 1.000000 0.0 1 1 1
Si1 core 0.051343 0.824680 0.447516 4.000000 1.000000 0.0 1 1 1
Si1 core 0.230175 0.316983 0.430510 4.000000 1.000000 0.0 1 1 1
Si1 core 0.221584 0.836643 0.423149 4.000000 1.000000 0.0 1 1 1
Si1 core 0.101436 0.167265 0.937490 4.000000 1.000000 0.0 1 1 1
Si1 core 0.117712 0.679182 0.939192 4.000000 1.000000 0.0 1 1 1
Si1 core 0.273728 0.191542 0.936390 4.000000 1.000000 0.0 1 1 1
Si1 core 0.279442 0.679116 0.929114 4.000000 1.000000 0.0 1 1 1
Si1 core 0.120862 0.154362 0.563035 4.000000 1.000000 0.0 1 1 1
Si1 core 0.111623 0.667621 0.566867 4.000000 1.000000 0.0 1 1 1
Si1 core 0.288836 0.165880 0.564684 4.000000 1.000000 0.0 1 1 1
Si1 core 0.271349 0.646623 0.556726 4.000000 1.000000 0.0 1 1 1
Si1 core 0.048470 0.339339 0.071482 4.000000 1.000000 0.0 1 1 1
Si1 core 0.054125 0.824428 0.059177 4.000000 1.000000 0.0 1 1 1
Si1 core 0.215182 0.349546 0.062644 4.000000 1.000000 0.0 1 1 1
Si1 core 0.228121 0.859183 0.050221 4.000000 1.000000 0.0 1 1 1
O1 core 0.066013 0.362840 0.254529 0.869020 1.000000 0.0 1 1 1
O1 shel 0.066013 0.362840 0.254529 -2.869020 1.000000 0.0 1 1 1
O1 core 0.045562 0.810211 0.253109 0.869020 1.000000 0.0 1 1 1
O1 shel 0.045562 0.810211 0.253109 -2.869020 1.000000 0.0 1 1 1
O1 core 0.209783 0.295223 0.244085 0.869020 1.000000 0.0 1 1 1
O1 shel 0.209783 0.295223 0.244085 -2.869020 1.000000 0.0 1 1 1
O1 core 0.243486 0.872129 0.245982 0.869020 1.000000 0.0 1 1 1
O1 shel 0.243486 0.872129 0.245982 -2.869020 1.000000 0.0 1 1 1
O1 core 0.101471 0.140792 0.744768 0.869020 1.000000 0.0 1 1 1
O1 shel 0.101471 0.140792 0.744768 -2.869020 1.000000 0.0 1 1 1
O1 core 0.128900 0.701458 0.753774 0.869020 1.000000 0.0 1 1 1
O1 shel 0.128900 0.701458 0.753774 -2.869020 1.000000 0.0 1 1 1
O1 core 0.291714 0.193436 0.760424 0.869020 1.000000 0.0 1 1 1
O1 shel 0.291714 0.193436 0.760424 -2.869020 1.000000 0.0 1 1 1
O1 core 0.261225 0.611716 0.750352 0.869020 1.000000 0.0 1 1 1
O1 shel 0.261225 0.611716 0.750352 -2.869020 1.000000 0.0 1 1 1
O1 core 0.071936 -0.003228 0.012476 0.869020 1.000000 0.0 1 1 1
O1 shel 0.071936 -0.003228 0.012476 -2.869020 1.000000 0.0 1 1 1
O1 core 0.075056 0.510231 -0.000862 0.869020 1.000000 0.0 1 1 1
O1 shel 0.075056 0.510231 -0.000862 -2.869020 1.000000 0.0 1 1 1
O1 core 0.236992 0.018764 -0.015783 0.869020 1.000000 0.0 1 1 1
O1 shel 0.236992 0.018764 -0.015783 -2.869020 1.000000 0.0 1 1 1
O1 core 0.247701 0.533211 0.046126 0.869020 1.000000 0.0 1 1 1
O1 shel 0.247701 0.533211 0.046126 -2.869020 1.000000 0.0 1 1 1
O1 core -0.013289 0.268044 0.065661 0.869020 1.000000 0.0 1 1 1
O1 shel -0.013289 0.268044 0.065661 -2.869020 1.000000 0.0 1 1 1
O1 core 0.001949 0.720910 -0.039400 0.869020 1.000000 0.0 1 1 1
O1 shel 0.001949 0.720910 -0.039400 -2.869020 1.000000 0.0 1 1 1
O1 core 0.159920 0.284695 -0.015875 0.869020 1.000000 0.0 1 1 1
O1 shel 0.159920 0.284695 -0.015875 -2.869020 1.000000 0.0 1 1 1
O1 core 0.170134 0.741425 0.047841 0.869020 1.000000 0.0 1 1 1
O1 shel 0.170134 0.741425 0.047841 -2.869020 1.000000 0.0 1 1 1
O1 core 0.068162 0.248409 -0.031627 0.869020 1.000000 0.0 1 1 1
O1 shel 0.068162 0.248409 -0.031627 -2.869020 1.000000 0.0 1 1 1
O1 core 0.100160 0.803324 -0.005853 0.869020 1.000000 0.0 1 1 1
O1 shel 0.100160 0.803324 -0.005853 -2.869020 1.000000 0.0 1 1 1
O1 core 0.241375 0.282294 -0.055534 0.869020 1.000000 0.0 1 1 1
O1 shel 0.241375 0.282294 -0.055534 -2.869020 1.000000 0.0 1 1 1
O1 core 0.259929 0.800204 -0.054157 0.869020 1.000000 0.0 1 1 1
O1 shel 0.259929 0.800204 -0.054157 -2.869020 1.000000 0.0 1 1 1
O1 core 0.098728 -0.006396 0.473871 0.869020 1.000000 0.0 1 1 1
O1 shel 0.098728 -0.006396 0.473871 -2.869020 1.000000 0.0 1 1 1
O1 core 0.085519 0.478351 0.550721 0.869020 1.000000 0.0 1 1 1
O1 shel 0.085519 0.478351 0.550721 -2.869020 1.000000 0.0 1 1 1
O1 core 0.248214 -0.010059 0.526799 0.869020 1.000000 0.0 1 1 1
O1 shel 0.248214 -0.010059 0.526799 -2.869020 1.000000 0.0 1 1 1
O1 core 0.258869 0.496898 0.454831 0.869020 1.000000 0.0 1 1 1
O1 shel 0.258869 0.496898 0.454831 -2.869020 1.000000 0.0 1 1 1
O1 core 0.012379 0.194571 0.507235 0.869020 1.000000 0.0 1 1 1
O1 shel 0.012379 0.194571 0.507235 -2.869020 1.000000 0.0 1 1 1
O1 core -0.000732 0.794389 0.548662 0.869020 1.000000 0.0 1 1 1
O1 shel -0.000732 0.794389 0.548662 -2.869020 1.000000 0.0 1 1 1
O1 core 0.181405 0.223186 0.552192 0.869020 1.000000 0.0 1 1 1
O1 shel 0.181405 0.223186 0.552192 -2.869020 1.000000 0.0 1 1 1
O1 core 0.161644 0.770201 0.444814 0.869020 1.000000 0.0 1 1 1
O1 shel 0.161644 0.770201 0.444814 -2.869020 1.000000 0.0 1 1 1
O1 core 0.105298 0.255223 0.453383 0.869020 1.000000 0.0 1 1 1
O1 shel 0.105298 0.255223 0.453383 -2.869020 1.000000 0.0 1 1 1
O1 core 0.075659 0.725042 0.506692 0.869020 1.000000 0.0 1 1 1
O1 shel 0.075659 0.725042 0.506692 -2.869020 1.000000 0.0 1 1 1
O1 core 0.275404 0.280818 0.475176 0.869020 1.000000 0.0 1 1 1
O1 shel 0.275404 0.280818 0.475176 -2.869020 1.000000 0.0 1 1 1
O1 core 0.232972 0.705577 0.495403 0.869020 1.000000 0.0 1 1 1
O1 shel 0.232972 0.705577 0.495403 -2.869020 1.000000 0.0 1 1 1
Si1 core 0.399811 0.315675 0.444087 4.000000 1.000000 0.0 1 1 1
Si1 core 0.385373 0.818014 0.434618 4.000000 1.000000 0.0 1 1 1
Si1 core 0.560641 0.311742 0.436235 4.000000 1.000000 0.0 1 1 1
Si1 core 0.552488 0.819312 0.436194 4.000000 1.000000 0.0 1 1 1
Si1 core 0.432005 0.170889 0.934965 4.000000 1.000000 0.0 1 1 1
Si1 core 0.448806 0.673390 0.945132 4.000000 1.000000 0.0 1 1 1
Si1 core 0.605461 0.178295 0.933554 4.000000 1.000000 0.0 1 1 1
Si1 core 0.611228 0.654361 0.945266 4.000000 1.000000 0.0 1 1 1
Si1 core 0.452838 0.152164 0.578958 4.000000 1.000000 0.0 1 1 1
Si1 core 0.443273 0.654499 0.558809 4.000000 1.000000 0.0 1 1 1
Si1 core 0.614334 0.144597 0.566508 4.000000 1.000000 0.0 1 1 1
Si1 core 0.606938 0.648412 0.560015 4.000000 1.000000 0.0 1 1 1
Si1 core 0.383067 0.339804 0.076831 4.000000 1.000000 0.0 1 1 1
Si1 core 0.394259 0.844671 0.055882 4.000000 1.000000 0.0 1 1 1
Si1 core 0.544609 0.330939 0.068961 4.000000 1.000000 0.0 1 1 1
Si1 core 0.563544 0.850409 0.063613 4.000000 1.000000 0.0 1 1 1
O1 core 0.396254 0.293109 0.247130 0.869020 1.000000 0.0 1 1 1
O1 shel 0.396254 0.293109 0.247130 -2.869020 1.000000 0.0 1 1 1
O1 core 0.388980 0.781932 0.242304 0.869020 1.000000 0.0 1 1 1
O1 shel 0.388980 0.781932 0.242304 -2.869020 1.000000 0.0 1 1 1
O1 core 0.535895 0.278306 0.263316 0.869020 1.000000 0.0 1 1 1
O1 shel 0.535895 0.278306 0.263316 -2.869020 1.000000 0.0 1 1 1
O1 core 0.573966 0.884917 0.255287 0.869020 1.000000 0.0 1 1 1
O1 shel 0.573966 0.884917 0.255287 -2.869020 1.000000 0.0 1 1 1
O1 core 0.431308 0.101037 0.758804 0.869020 1.000000 0.0 1 1 1
O1 shel 0.431308 0.101037 0.758804 -2.869020 1.000000 0.0 1 1 1
O1 core 0.452968 0.644006 0.757180 0.869020 1.000000 0.0 1 1 1
O1 shel 0.452968 0.644006 0.757180 -2.869020 1.000000 0.0 1 1 1
O1 core 0.617260 0.203360 0.744868 0.869020 1.000000 0.0 1 1 1
O1 shel 0.617260 0.203360 0.744868 -2.869020 1.000000 0.0 1 1 1
O1 core 0.594594 0.614644 0.755071 0.869020 1.000000 0.0 1 1 1
O1 shel 0.594594 0.614644 0.755071 -2.869020 1.000000 0.0 1 1 1
O1 core 0.411877 0.025193 0.058858 0.869020 1.000000 0.0 1 1 1
O1 shel 0.411877 0.025193 0.058858 -2.869020 1.000000 0.0 1 1 1
O1 core 0.407667 0.516684 0.030058 0.869020 1.000000 0.0 1 1 1
O1 shel 0.407667 0.516684 0.030058 -2.869020 1.000000 0.0 1 1 1
O1 core 0.577217 0.010456 -0.015434 0.869020 1.000000 0.0 1 1 1
O1 shel 0.577217 0.010456 -0.015434 -2.869020 1.000000 0.0 1 1 1
O1 core 0.581764 0.511391 0.063021 0.869020 1.000000 0.0 1 1 1
O1 shel 0.581764 0.511391 0.063021 -2.869020 1.000000 0.0 1 1 1
O1 core 0.322577 0.273983 0.065675 0.869020 1.000000 0.0 1 1 1
O1 shel 0.322577 0.273983 0.065675 -2.869020 1.000000 0.0 1 1 1
O1 core 0.340382 0.765365 -0.038345 0.869020 1.000000 0.0 1 1 1
O1 shel 0.340382 0.765365 -0.038345 -2.869020 1.000000 0.0 1 1 1
O1 core 0.490572 0.293461 -0.021969 0.869020 1.000000 0.0 1 1 1
O1 shel 0.490572 0.293461 -0.021969 -2.869020 1.000000 0.0 1 1 1
O1 core 0.504581 0.735989 0.037456 0.869020 1.000000 0.0 1 1 1
O1 shel 0.504581 0.735989 0.037456 -2.869020 1.000000 0.0 1 1 1
O1 core 0.399864 0.255860 -0.066059 0.869020 1.000000 0.0 1 1 1
O1 shel 0.399864 0.255860 -0.066059 -2.869020 1.000000 0.0 1 1 1
O1 core 0.431902 0.800844 -0.036847 0.869020 1.000000 0.0 1 1 1
O1 shel 0.431902 0.800844 -0.036847 -2.869020 1.000000 0.0 1 1 1
O1 core 0.571888 0.254976 -0.028742 0.869020 1.000000 0.0 1 1 1
O1 shel 0.571888 0.254976 -0.028742 -2.869020 1.000000 0.0 1 1 1
O1 core 0.603077 0.795794 -0.011339 0.869020 1.000000 0.0 1 1 1
O1 shel 0.603077 0.795794 -0.011339 -2.869020 1.000000 0.0 1 1 1
O1 core 0.422814 -0.001104 0.460862 0.869020 1.000000 0.0 1 1 1
O1 shel 0.422814 -0.001104 0.460862 -2.869020 1.000000 0.0 1 1 1
O1 core 0.411417 0.487001 0.486893 0.869020 1.000000 0.0 1 1 1
O1 shel 0.411417 0.487001 0.486893 -2.869020 1.000000 0.0 1 1 1
O1 core 0.571144 -0.039579 0.563443 0.869020 1.000000 0.0 1 1 1
O1 shel 0.571144 -0.039579 0.563443 -2.869020 1.000000 0.0 1 1 1
O1 core 0.594630 0.493344 0.465620 0.869020 1.000000 0.0 1 1 1
O1 shel 0.594630 0.493344 0.465620 -2.869020 1.000000 0.0 1 1 1
O1 core 0.344294 0.201339 0.512378 0.869020 1.000000 0.0 1 1 1
O1 shel 0.344294 0.201339 0.512378 -2.869020 1.000000 0.0 1 1 1
O1 core 0.330608 0.766175 0.515099 0.869020 1.000000 0.0 1 1 1
O1 shel 0.330608 0.766175 0.515099 -2.869020 1.000000 0.0 1 1 1
O1 core 0.513100 0.225202 0.565707 0.869020 1.000000 0.0 1 1 1
O1 shel 0.513100 0.225202 0.565707 -2.869020 1.000000 0.0 1 1 1
O1 core 0.492838 0.753374 0.443052 0.869020 1.000000 0.0 1 1 1
O1 shel 0.492838 0.753374 0.443052 -2.869020 1.000000 0.0 1 1 1
O1 core 0.441753 0.279321 0.514626 0.869020 1.000000 0.0 1 1 1
O1 shel 0.441753 0.279321 0.514626 -2.869020 1.000000 0.0 1 1 1
O1 core 0.409039 0.728573 0.526057 0.869020 1.000000 0.0 1 1 1
O1 shel 0.409039 0.728573 0.526057 -2.869020 1.000000 0.0 1 1 1
O1 core 0.594492 0.230964 0.448373 0.869020 1.000000 0.0 1 1 1
O1 shel 0.594492 0.230964 0.448373 -2.869020 1.000000 0.0 1 1 1
O1 core 0.568015 0.692124 0.476847 0.869020 1.000000 0.0 1 1 1
O1 shel 0.568015 0.692124 0.476847 -2.869020 1.000000 0.0 1 1 1
Si1 core 0.726735 0.326980 0.442961 4.000000 1.000000 0.0 1 1 1
Si1 core 0.715459 0.824773 0.434645 4.000000 1.000000 0.0 1 1 1
Si1 core 0.898444 0.318313 0.432433 4.000000 1.000000 0.0 1 1 1
Si1 core 0.886544 0.827019 0.434092 4.000000 1.000000 0.0 1 1 1
Si1 core 0.767325 0.181080 0.934819 4.000000 1.000000 0.0 1 1 1
Si1 core 0.778063 0.692333 0.940356 4.000000 1.000000 0.0 1 1 1
Si1 core 0.939301 0.181707 0.939308 4.000000 1.000000 0.0 1 1 1
Si1 core 0.943947 0.662619 0.931691 4.000000 1.000000 0.0 1 1 1
Si1 core 0.785082 0.168424 0.557554 4.000000 1.000000 0.0 1 1 1
Si1 core 0.773496 0.666112 0.560221 4.000000 1.000000 0.0 1 1 1
Si1 core 0.957355 0.153844 0.570875 4.000000 1.000000 0.0 1 1 1
Si1 core 0.939996 0.653385 0.560635 4.000000 1.000000 0.0 1 1 1
Si1 core 0.715156 0.357983 0.067339 4.000000 1.000000 0.0 1 1 1
Si1 core 0.719849 0.848485 0.051097 4.000000 1.000000 0.0 1 1 1
Si1 core 0.880431 0.332191 0.059743 4.000000 1.000000 0.0 1 1 1
Si1 core 0.890689 0.843088 0.063105 4.000000 1.000000 0.0 1 1 1
O1 core 0.728432 0.378111 0.262377 0.869020 1.000000 0.0 1 1 1
O1 shel 0.728432 0.378111 0.262377 -2.869020 1.000000 0.0 1 1 1
O1 core 0.704107 0.824432 0.244400 0.869020 1.000000 0.0 1 1 1
O1 shel 0.704107 0.824432 0.244400 -2.869020 1.000000 0.0 1 1 1
O1 core 0.885759 0.298180 0.242517 0.869020 1.000000 0.0 1 1 1
O1 shel 0.885759 0.298180 0.242517 -2.869020 1.000000 0.0 1 1 1
O1 core 0.902404 0.867285 0.247696 0.869020 1.000000 0.0 1 1 1
O1 shel 0.902404 0.867285 0.247696 -2.869020 1.000000 0.0 1 1 1
O1 core 0.773319 0.183531 0.745289 0.869020 1.000000 0.0 1 1 1
O1 shel 0.773319 0.183531 0.745289 -2.869020 1.000000 0.0 1 1 1
O1 core 0.780607 0.700770 0.748424 0.869020 1.000000 0.0 1 1 1
O1 shel 0.780607 0.700770 0.748424 -2.869020 1.000000 0.0 1 1 1
O1 core 0.959376 0.198464 0.760698 0.869020 1.000000 0.0 1 1 1
O1 shel 0.959376 0.198464 0.760698 -2.869020 1.000000 0.0 1 1 1
O1 core 0.922951 0.620229 0.750909 0.869020 1.000000 0.0 1 1 1
O1 shel 0.922951 0.620229 0.750909 -2.869020 1.000000 0.0 1 1 1
O1 core 0.732278 0.016954 -0.003139 0.869020 1.000000 0.0 1 1 1
O1 shel 0.732278 0.016954 -0.003139 -2.869020 1.000000 0.0 1 1 1
O1 core 0.732643 0.522743 -0.018384 0.869020 1.000000 0.0 1 1 1
O1 shel 0.732643 0.522743 -0.018384 -2.869020 1.000000 0.0 1 1 1
O1 core 0.906007 0.010797 -0.006448 0.869020 1.000000 0.0 1 1 1
O1 shel 0.906007 0.010797 -0.006448 -2.869020 1.000000 0.0 1 1 1
O1 core 0.909417 0.514456 0.045826 0.869020 1.000000 0.0 1 1 1
O1 shel 0.909417 0.514456 0.045826 -2.869020 1.000000 0.0 1 1 1
O1 core 0.658265 0.262973 0.028767 0.869020 1.000000 0.0 1 1 1
O1 shel 0.658265 0.262973 0.028767 -2.869020 1.000000 0.0 1 1 1
O1 core 0.669611 0.708488 -0.030790 0.869020 1.000000 0.0 1 1 1
O1 shel 0.669611 0.708488 -0.030790 -2.869020 1.000000 0.0 1 1 1
O1 core 0.822062 0.253517 0.020423 0.869020 1.000000 0.0 1 1 1
O1 shel 0.822062 0.253517 0.020423 -2.869020 1.000000 0.0 1 1 1
O1 core 0.831805 0.727925 0.020881 0.869020 1.000000 0.0 1 1 1
O1 shel 0.831805 0.727925 0.020881 -2.869020 1.000000 0.0 1 1 1
O1 core 0.747298 0.294223 -0.025519 0.869020 1.000000 0.0 1 1 1
O1 shel 0.747298 0.294223 -0.025519 -2.869020 1.000000 0.0 1 1 1
O1 core 0.769931 0.826067 0.013303 0.869020 1.000000 0.0 1 1 1
O1 shel 0.769931 0.826067 0.013303 -2.869020 1.000000 0.0 1 1 1
O1 core 0.900863 0.253216 -0.057919 0.869020 1.000000 0.0 1 1 1
O1 shel 0.900863 0.253216 -0.057919 -2.869020 1.000000 0.0 1 1 1
O1 core 0.929516 0.791467 -0.007508 0.869020 1.000000 0.0 1 1 1
O1 shel 0.929516 0.791467 -0.007508 -2.869020 1.000000 0.0 1 1 1
O1 core 0.757376 -0.013651 0.518000 0.869020 1.000000 0.0 1 1 1
O1 shel 0.757376 -0.013651 0.518000 -2.869020 1.000000 0.0 1 1 1
O1 core 0.752888 0.481937 0.551066 0.869020 1.000000 0.0 1 1 1
O1 shel 0.752888 0.481937 0.551066 -2.869020 1.000000 0.0 1 1 1
O1 core 0.921522 -0.022907 0.546540 0.869020 1.000000 0.0 1 1 1
O1 shel 0.921522 -0.022907 0.546540 -2.869020 1.000000 0.0 1 1 1
O1 core 0.932735 0.498660 0.484634 0.869020 1.000000 0.0 1 1 1
O1 shel 0.932735 0.498660 0.484634 -2.869020 1.000000 0.0 1 1 1
O1 core 0.670243 0.186228 0.515798 0.869020 1.000000 0.0 1 1 1
O1 shel 0.670243 0.186228 0.515798 -2.869020 1.000000 0.0 1 1 1
O1 core 0.664519 0.788767 0.533603 0.869020 1.000000 0.0 1 1 1
O1 shel 0.664519 0.788767 0.533603 -2.869020 1.000000 0.0 1 1 1
O1 core 0.842597 0.221359 0.526390 0.869020 1.000000 0.0 1 1 1
O1 shel 0.842597 0.221359 0.526390 -2.869020 1.000000 0.0 1 1 1
O1 core 0.827498 0.772386 0.470856 0.869020 1.000000 0.0 1 1 1
O1 shel 0.827498 0.772386 0.470856 -2.869020 1.000000 0.0 1 1 1
O1 core 0.764114 0.257453 0.439607 0.869020 1.000000 0.0 1 1 1
O1 shel 0.764114 0.257453 0.439607 -2.869020 1.000000 0.0 1 1 1
O1 core 0.735471 0.703600 0.476038 0.869020 1.000000 0.0 1 1 1
O1 shel 0.735471 0.703600 0.476038 -2.869020 1.000000 0.0 1 1 1
O1 core 0.936982 0.253232 0.473284 0.869020 1.000000 0.0 1 1 1
O1 shel 0.936982 0.253232 0.473284 -2.869020 1.000000 0.0 1 1 1
O1 core 0.896842 0.688574 0.491509 0.869020 1.000000 0.0 1 1 1
O1 shel 0.896842 0.688574 0.491509 -2.869020 1.000000 0.0 1 1 1

Species
O1 core O_O2-
O1 shel O_O2-
Si1 core Si

spacegroup
P 1

library catlow


output movie arc tridymite_NPT
mdarchive tridymite_NPT.arc
output trajectory tridymite_NPT.trg
output pressure tridymite_NPT.pre
output history tridymite_NPT.his

