Generated from Document [0x08b00078] by Materials Studio 4.3
   1.0 
36.060000 -0.000000 -0.000000 
0.000000 36.060000 -0.000000 
0.000000 0.000000 36.060000 
 1296  3024  
Cartesian 
    -3.302950    36.907066    12.900475      C      CD2      +0.000
    -2.127043    37.049404    11.820365      C      CD2      +0.000
    -2.584572    36.871208    10.315581      C      CD2      +0.000
    -1.519340    37.061131     9.237350      C      CD2      +0.000
    -1.866495    36.858475     7.733628      C      CD2      +0.000
    -0.655877    36.783112     6.811742      C      CD2      +0.000
     2.601478    -5.844043   -22.290932      C      CD2      +0.000
     2.943603    -5.632530   -20.797676      C      CD2      +0.000
     4.456686    -5.707045   -20.380407      C      CD2      +0.000
     4.586833    -5.606669   -18.954969      C      CD2      +0.000
     6.017541    -5.427245   -18.325712      C      CD2      +0.000
     5.896764    -5.018843   -16.796429      C      CD2      +0.000
   -35.439186     2.987196   -33.480942      C      CD2      +0.000
   -34.617191     2.410990   -34.652176      C      CD2      +0.000
   -33.121719     2.474941   -34.463940      C      CD2      +0.000
   -32.459225     1.889375   -35.830185      C      CD2      +0.000
   -30.942493     1.675718   -35.913254      C      CD2      +0.000
   -30.438894     0.941170   -37.193470      C      CD2      +0.000
    42.543446     6.172094     4.033317      C      CD2      +0.000
    41.304596     5.269321     3.953269      C      CD2      +0.000
    41.564499     3.755749     4.467358      C      CD2      +0.000
    40.371792     2.958163     4.784602      C      CD2      +0.000
    40.565662     1.823515     5.668081      C      CD2      +0.000
    39.200611     1.026432     5.935174      C      CD2      +0.000
    63.011524    23.400188     7.325443      C      CD2      +0.000
    61.903423    24.513651     7.273138      C      CD2      +0.000
    61.511650    25.233038     8.624640      C      CD2      +0.000
    60.608181    26.513960     8.367911      C      CD2      +0.000
    60.181705    27.414005     9.542862      C      CD2      +0.000
    59.213840    28.546589     9.140179      C      CD2      +0.000
     2.015318     3.137276   -11.172939      C      CD2      +0.000
     1.389868     1.935431   -11.883892      C      CD2      +0.000
     2.155029     1.507129   -13.103553      C      CD2      +0.000
     1.547947     0.324107   -14.008720      C      CD2      +0.000
     0.218050     0.630037   -14.633410      C      CD2      +0.000
    -0.137878    -0.277618   -15.709464      C      CD2      +0.000
    -7.118265    62.228752   -31.104128      C      CD2      +0.000
    -6.055025    61.635960   -30.157291      C      CD2      +0.000
    -5.596493    60.119938   -30.425510      C      CD2      +0.000
    -4.713409    59.505711   -29.316029      C      CD2      +0.000
    -5.462164    58.800392   -28.309307      C      CD2      +0.000
    -4.557454    58.082813   -27.387278      C      CD2      +0.000
    45.529999    48.609734    54.433056      C      CD2      +0.000
    45.229500    49.617668    53.383171      C      CD2      +0.000
    46.308762    50.600212    53.133812      C      CD2      +0.000
    45.649632    51.835598    52.352203      C      CD2      +0.000
    46.598011    53.024563    52.480801      C      CD2      +0.000
    46.015896    54.403221    52.144886      C      CD2      +0.000
     5.893824    43.196663    -5.369762      C      CD2      +0.000
     5.503696    44.388607    -6.247479      C      CD2      +0.000
     6.207340    44.419113    -7.514673      C      CD2      +0.000
     6.116002    45.693027    -8.419538      C      CD2      +0.000
     6.981601    45.661396    -9.645167      C      CD2      +0.000
     7.005027    46.928417   -10.622926      C      CD2      +0.000
    47.903763     3.707792    57.485455      C      CD2      +0.000
    47.949245     3.351613    59.048252      C      CD2      +0.000
    48.801865     4.272272    59.913723      C      CD2      +0.000
    48.809788     3.846037    61.418198      C      CD2      +0.000
    49.841839     4.659657    62.232574      C      CD2      +0.000
    49.916592     4.505792    63.754787      C      CD2      +0.000
     0.195564    19.064131     1.292245      C      CD2      +0.000
     1.281127    19.071993     2.405175      C      CD2      +0.000
     2.052089    17.723875     2.426775      C      CD2      +0.000
     3.398475    17.877901     3.308589      C      CD2      +0.000
     4.626462    16.964951     2.963773      C      CD2      +0.000
     6.032236    17.285181     3.628532      C      CD2      +0.000
    10.393029   -40.443642    23.545174      C      CD2      +0.000
    10.839533   -39.588127    22.290218      C      CD2      +0.000
     9.650482   -38.699856    21.741526      C      CD2      +0.000
    10.063366   -37.852474    20.386505      C      CD2      +0.000
     8.937909   -37.341171    19.441467      C      CD2      +0.000
     9.361184   -36.171879    18.458727      C      CD2      +0.000
   -39.020149   -24.390081    16.381010      C      CD2      +0.000
   -39.291355   -23.051003    15.877769      C      CD2      +0.000
   -40.088676   -22.197268    16.880331      C      CD2      +0.000
   -40.509689   -20.781544    16.550497      C      CD2      +0.000
   -40.928505   -19.686047    17.724606      C      CD2      +0.000
   -41.027145   -18.288872    17.297131      C      CD2      +0.000
   -15.530455    54.782955   -33.529964      C      CD2      +0.000
   -16.190569    54.731537   -32.124229      C      CD2      +0.000
   -15.852195    53.605087   -31.174826      C      CD2      +0.000
   -16.552450    53.467667   -29.849464      C      CD2      +0.000
   -16.599819    52.151649   -29.404066      C      CD2      +0.000
   -16.393734    52.045902   -27.826683      C      CD2      +0.000
     0.100849     4.628415     6.712860      C      CD2      +0.000
     1.112825     5.332113     5.842052      C      CD2      +0.000
     2.301336     5.883894     6.676196      C      CD2      +0.000
     2.955179     7.082832     6.082533      C      CD2      +0.000
     3.912286     7.945514     6.993815      C      CD2      +0.000
     4.742811     9.010789     6.278733      C      CD2      +0.000
   -25.453329    42.487480     8.975923      C      CD2      +0.000
   -25.015020    42.318832     7.496508      C      CD2      +0.000
   -23.599195    42.887070     7.068161      C      CD2      +0.000
   -23.434843    42.976795     5.539453      C      CD2      +0.000
   -22.092972    43.747814     5.080493      C      CD2      +0.000
   -21.845097    43.581745     3.508519      C      CD2      +0.000
    43.904819    26.173435   -31.786861      C      CD2      +0.000
    44.208427    25.477125   -30.397154      C      CD2      +0.000
    43.665852    24.013599   -30.064178      C      CD2      +0.000
    44.402027    23.474516   -28.677025      C      CD2      +0.000
    43.696331    24.111095   -27.490606      C      CD2      +0.000
    43.933144    23.754698   -26.116810      C      CD2      +0.000
    33.805149     0.570706    16.982096      C      CD2      +0.000
    35.259827    -0.041862    16.940243      C      CD2      +0.000
    35.943165    -0.395882    15.625545      C      CD2      +0.000
    37.322132    -1.001365    15.707606      C      CD2      +0.000
    37.800476    -1.530950    14.366954      C      CD2      +0.000
    39.178783    -2.164054    14.508335      C      CD2      +0.000
    -9.459875     8.614003   -24.048489      C      CD2      +0.000
    -7.920882     8.710740   -24.344675      C      CD2      +0.000
    -7.212184     8.039518   -23.130909      C      CD2      +0.000
    -5.657112     8.263017   -23.265196      C      CD2      +0.000
    -4.954817     7.761915   -21.959641      C      CD2      +0.000
    -3.663177     8.601295   -21.601727      C      CD2      +0.000
   -25.448294    58.969227    -7.869911      C      CD2      +0.000
   -26.098293    57.923256    -8.578637      C      CD2      +0.000
   -25.963047    57.893253   -10.061544      C      CD2      +0.000
   -26.875854    56.912327   -10.827428      C      CD2      +0.000
   -26.435898    56.707283   -12.339536      C      CD2      +0.000
   -27.453480    55.986069   -13.241894      C      CD2      +0.000
    42.628777    27.493124   -12.390718      C      CD2      +0.000
    43.322006    28.118464   -11.217517      C      CD2      +0.000
    42.945484    27.423401    -9.849105      C      CD2      +0.000
    43.577023    28.159426    -8.614726      C      CD2      +0.000
    43.242367    27.508354    -7.368538      C      CD2      +0.000
    43.574413    28.329300    -6.138960      C      CD2      +0.000
    -6.720725    30.710030    35.025383      C      CD2      +0.000
    -5.933050    31.844347    35.607944      C      CD2      +0.000
    -4.801420    31.535656    36.437107      C      CD2      +0.000
    -3.973208    32.841805    36.835342      C      CD2      +0.000
    -2.572192    32.725765    37.502537      C      CD2      +0.000
    -1.827332    34.036663    37.751713      C      CD2      +0.000
    32.629158    15.291324    -0.120736      C      CD2      +0.000
    32.640789    16.699446     0.748511      C      CD2      +0.000
    31.863123    16.641186     2.081933      C      CD2      +0.000
    31.869947    17.974138     2.680286      C      CD2      +0.000
    31.198217    17.971096     4.066200      C      CD2      +0.000
    31.023354    19.299307     4.761872      C      CD2      +0.000
    25.793507    32.672157   -39.180943      C      CD2      +0.000
    24.291376    32.802284   -38.890057      C      CD2      +0.000
    23.301493    32.620148   -40.055687      C      CD2      +0.000
    21.905588    33.039303   -39.780140      C      CD2      +0.000
    20.860271    32.547150   -40.771923      C      CD2      +0.000
    19.443193    32.996559   -40.366772      C      CD2      +0.000
   -26.185946    54.968872    10.267203      C      CD2      +0.000
   -26.960844    55.737160     9.105888      C      CD2      +0.000
   -28.099379    54.847202     8.527371      C      CD2      +0.000
   -28.939411    55.593819     7.441903      C      CD2      +0.000
   -30.301437    55.001369     6.993546      C      CD2      +0.000
   -31.217230    56.026131     6.274392      C      CD2      +0.000
     6.864050    40.657894    -9.437316      C      CD2      +0.000
     5.934107    41.667957   -10.184971      C      CD2      +0.000
     6.103109    41.785587   -11.847538      C      CD2      +0.000
     5.242685    43.000267   -12.492639      C      CD2      +0.000
     4.746222    42.552479   -13.941309      C      CD2      +0.000
     3.806860    43.592045   -14.670396      C      CD2      +0.000
    27.865950    36.857868   -19.420925      C      CD2      +0.000
    28.534954    35.471458   -19.265772      C      CD2      +0.000
    27.481512    34.255287   -19.395187      C      CD2      +0.000
    28.096540    32.919014   -19.327682      C      CD2      +0.000
    27.143167    31.685062   -19.001947      C      CD2      +0.000
    27.911228    30.374889   -18.781588      C      CD2      +0.000
    74.547043    34.059963     9.894929      C      CD2      +0.000
    75.035446    35.576221    10.026511      C      CD2      +0.000
    76.395348    35.986504     9.485188      C      CD2      +0.000
    76.872482    37.425629     9.543911      C      CD2      +0.000
    78.390656    37.631378     9.310051      C      CD2      +0.000
    78.643730    39.104408     8.985902      C      CD2      +0.000
    40.881931    31.251575    42.691551      C      CD2      +0.000
    42.239399    31.396461    41.765984      C      CD2      +0.000
    43.199551    30.192724    41.716961      C      CD2      +0.000
    44.481304    30.567673    40.893135      C      CD2      +0.000
    45.616402    29.448561    40.852322      C      CD2      +0.000
    46.850525    29.869799    39.955467      C      CD2      +0.000
    34.217937     7.142962   -12.495808      C      CD2      +0.000
    33.341980     8.320636   -12.792665      C      CD2      +0.000
    31.898272     7.992033   -13.036887      C      CD2      +0.000
    30.909758     9.187783   -13.271946      C      CD2      +0.000
    29.583191     8.697440   -13.653484      C      CD2      +0.000
    28.376715     9.555721   -13.342271      C      CD2      +0.000
    28.468399    26.791056    -0.904483      C      CD2      +0.000
    29.897459    26.525797    -0.382790      C      CD2      +0.000
    30.233921    27.463470     0.620524      C      CD2      +0.000
    31.493103    27.397068     1.227069      C      CD2      +0.000
    31.493286    28.328487     2.382870      C      CD2      +0.000
    32.790241    28.906315     3.045645      C      CD2      +0.000
     3.274523    49.642368    27.702196      C      CD2      +0.000
     3.022953    48.214790    28.099426      C      CD2      +0.000
     2.579445    48.063217    29.745369      C      CD2      +0.000
     2.134014    46.640701    30.058601      C      CD2      +0.000
     1.846927    46.299583    31.657503      C      CD2      +0.000
     1.741049    44.783676    31.807852      C      CD2      +0.000
    46.412540    37.840942     6.527609      C      CD2      +0.000
    46.252262    38.096291     8.032804      C      CD2      +0.000
    47.560909    37.922604     8.916700      C      CD2      +0.000
    47.507069    38.677284    10.277824      C      CD2      +0.000
    48.458412    38.133507    11.171864      C      CD2      +0.000
    48.889874    38.912979    12.434813      C      CD2      +0.000
   -17.575779   -27.452803   -17.658978      C      CD2      +0.000
   -19.121744   -27.502201   -17.791552      C      CD2      +0.000
   -19.699713   -27.749420   -19.181427      C      CD2      +0.000
   -19.752590   -29.233801   -19.340099      C      CD2      +0.000
   -20.818378   -29.676126   -20.474390      C      CD2      +0.000
   -20.628094   -31.182240   -20.861805      C      CD2      +0.000
    42.769508    48.894222    13.640273      C      CD2      +0.000
    44.266647    49.239285    13.269264      C      CD2      +0.000
    44.355278    50.064617    11.892600      C      CD2      +0.000
    45.675762    50.435635    11.446896      C      CD2      +0.000
    45.765942    51.081421    10.104523      C      CD2      +0.000
    47.261150    51.244068     9.337213      C      CD2      +0.000
    28.364187    40.674114   -21.514141      C      CD2      +0.000
    29.720013    39.893467   -21.588083      C      CD2      +0.000
    30.787811    40.576801   -20.887424      C      CD2      +0.000
    32.028530    39.770000   -20.774359      C      CD2      +0.000
    33.159454    40.462997   -19.918810      C      CD2      +0.000
    34.514336    40.009769   -20.374428      C      CD2      +0.000
    13.511914   -31.908859   -17.914900      C      CD2      +0.000
    13.247237   -33.386871   -18.076109      C      CD2      +0.000
    13.139982   -33.839645   -19.482735      C      CD2      +0.000
    13.864395   -35.294369   -19.684839      C      CD2      +0.000
    13.697788   -35.940632   -21.172066      C      CD2      +0.000
    13.760653   -37.456715   -21.209213      C      CD2      +0.000
    -2.225082   -29.825264     1.570825      C      CD2      +0.000
    -0.810193   -29.375595     2.033870      C      CD2      +0.000
     0.068848   -29.045773     0.766205      C      CD2      +0.000
     1.490371   -29.169777     0.790577      C      CD2      +0.000
     2.220234   -28.750336    -0.602516      C      CD2      +0.000
     3.855949   -28.805428    -0.572811      C      CD2      +0.000
    42.092171    23.721169    -7.028477      C      CD2      +0.000
    40.890854    22.769629    -6.622741      C      CD2      +0.000
    41.360035    21.486948    -6.104136      C      CD2      +0.000
    40.267017    20.418179    -5.943188      C      CD2      +0.000
    40.651165    18.920614    -5.800906      C      CD2      +0.000
    39.521458    17.962286    -5.831777      C      CD2      +0.000
    31.138504     5.845134     4.249890      C      CD2      +0.000
    29.760571     5.138886     3.848038      C      CD2      +0.000
    29.435324     3.851109     4.540113      C      CD2      +0.000
    29.899521     2.580694     3.866960      C      CD2      +0.000
    30.322128     1.606859     4.958825      C      CD2      +0.000
    31.094442     0.325858     4.319166      C      CD2      +0.000
    15.923273   -19.465450    21.070827      C      CD2      +0.000
    17.222826   -19.077736    20.499586      C      CD2      +0.000
    18.421040   -19.457045    21.271793      C      CD2      +0.000
    19.680349   -19.168653    20.644560      C      CD2      +0.000
    21.077581   -19.505980    21.477846      C      CD2      +0.000
    22.342184   -18.758551    21.010244      C      CD2      +0.000
    17.446083    -0.580414    11.674372      C      CD2      +0.000
    18.899290    -0.185360    11.838129      C      CD2      +0.000
    19.220179     1.082775    11.046393      C      CD2      +0.000
    20.763784     1.292232    10.932222      C      CD2      +0.000
    21.060366     2.572674    10.036531      C      CD2      +0.000
    22.523821     3.024541    10.053659      C      CD2      +0.000
    16.059078    50.455338   -30.706009      C      CD2      +0.000
    16.340300    49.080986   -30.020842      C      CD2      +0.000
    17.385136    49.314426   -28.993998      C      CD2      +0.000
    17.689596    48.072964   -28.203644      C      CD2      +0.000
    18.563910    48.273727   -26.835537      C      CD2      +0.000
    18.822376    46.828289   -26.216202      C      CD2      +0.000
    27.764471   -10.640729    23.671846      C      CD2      +0.000
    27.455587   -12.107060    23.363852      C      CD2      +0.000
    28.404358   -13.151426    23.942783      C      CD2      +0.000
    28.440018   -14.570431    23.383459      C      CD2      +0.000
    29.430079   -15.392524    24.192591      C      CD2      +0.000
    29.665409   -16.897041    23.619913      C      CD2      +0.000
    -4.599501     1.386448     0.254917      C      CD2      +0.000
    -3.944049     1.816705    -1.065623      C      CD2      +0.000
    -2.785064     2.915084    -1.006547      C      CD2      +0.000
    -2.312130     3.293970    -2.455002      C      CD2      +0.000
    -1.146298     4.255261    -2.447318      C      CD2      +0.000
    -0.723699     4.756822    -3.816247      C      CD2      +0.000
   -12.486030    10.336249    10.255233      C      CD2      +0.000
   -12.498425    11.888671    10.523699      C      CD2      +0.000
   -13.672973    12.497612    11.089592      C      CD2      +0.000
   -13.433455    13.952263    11.460259      C      CD2      +0.000
   -14.476274    14.644194    12.249109      C      CD2      +0.000
   -14.263088    16.167492    12.604925      C      CD2      +0.000
    45.495171    11.481771   -13.304791      C      CD2      +0.000
    46.503799    12.547900   -12.727452      C      CD2      +0.000
    46.901260    13.772958   -13.760406      C      CD2      +0.000
    47.817924    14.937509   -13.250565      C      CD2      +0.000
    47.894981    16.184418   -14.083495      C      CD2      +0.000
    48.739349    17.201330   -13.446080      C      CD2      +0.000
    38.430450    26.038506    29.971300      C      CD2      +0.000
    38.043629    27.005360    28.746836      C      CD2      +0.000
    39.230106    27.827614    28.180346      C      CD2      +0.000
    38.848946    28.752840    27.056870      C      CD2      +0.000
    40.067604    29.685875    26.832804      C      CD2      +0.000
    40.027195    30.762609    25.651928      C      CD2      +0.000
    34.642048   -10.281563    -0.256133      C      CD2      +0.000
    35.964863   -11.110744    -0.221832      C      CD2      +0.000
    35.889290   -12.451635    -0.996129      C      CD2      +0.000
    37.284321   -13.034900    -1.300238      C      CD2      +0.000
    37.318741   -14.397504    -2.026765      C      CD2      +0.000
    38.872612   -14.832785    -2.268844      C      CD2      +0.000
    12.086519    15.428670    41.163181      C      CD2      +0.000
    10.936079    14.789409    40.574131      C      CD2      +0.000
     9.768429    14.513216    41.601009      C      CD2      +0.000
     8.510674    13.650916    41.027161      C      CD2      +0.000
     7.287675    13.785083    42.109257      C      CD2      +0.000
     5.986405    12.995908    41.680580      C      CD2      +0.000
    23.927698    24.434624    -6.461763      C      CD2      +0.000
    22.789415    23.775524    -5.818897      C      CD2      +0.000
    21.511692    24.605038    -5.590266      C      CD2      +0.000
    20.405710    23.850096    -4.918124      C      CD2      +0.000
    19.244230    24.867672    -4.510671      C      CD2      +0.000
    17.938801    24.269661    -3.933804      C      CD2      +0.000
   104.464951    23.982134    16.639326      C      CD2      +0.000
   104.022903    22.927629    15.940847      C      CD2      +0.000
   104.909889    22.628363    14.755903      C      CD2      +0.000
   104.542282    21.372549    13.929130      C      CD2      +0.000
   105.300018    21.026497    12.775875      C      CD2      +0.000
   104.685242    19.864149    11.989280      C      CD2      +0.000
    41.493431    20.784298    37.189621      C      CD2      +0.000
    41.275887    21.501493    38.564941      C      CD2      +0.000
    41.015186    23.018326    38.480919      C      CD2      +0.000
    40.257076    23.661366    39.707760      C      CD2      +0.000
    39.779884    25.046364    39.344818      C      CD2      +0.000
    38.892845    25.680561    40.445282      C      CD2      +0.000
    42.800556    31.169941    36.831596      C      CD2      +0.000
    41.621120    32.014446    36.468094      C      CD2      +0.000
    40.548958    31.779842    37.348022      C      CD2      +0.000
    39.518093    33.117447    37.419613      C      CD2      +0.000
    39.015423    33.152195    38.813473      C      CD2      +0.000
    38.141254    34.408920    39.102898      C      CD2      +0.000
    -0.099516   -24.395525    56.058754      C      CD2      +0.000
    -1.520105   -24.284042    56.575809      C      CD2      +0.000
    -2.334115   -22.978863    56.671940      C      CD2      +0.000
    -3.832401   -23.120302    57.140125      C      CD2      +0.000
    -4.689503   -21.837906    57.383583      C      CD2      +0.000
    -6.236050   -22.075413    57.503498      C      CD2      +0.000
     0.378304   -14.090796     6.620134      C      CD2      +0.000
    -0.162209   -13.399148     5.314100      C      CD2      +0.000
    -1.611592   -13.993544     4.921431      C      CD2      +0.000
    -2.205501   -13.671802     3.525378      C      CD2      +0.000
    -2.672165   -12.242150     3.207177      C      CD2      +0.000
    -3.628063   -12.227678     2.119018      C      CD2      +0.000
    -9.007283    27.316425    -5.233851      C      CD2      +0.000
    -7.693152    27.203793    -4.412138      C      CD2      +0.000
    -6.720660    28.312792    -4.645638      C      CD2      +0.000
    -5.401122    28.120131    -3.890147      C      CD2      +0.000
    -4.427608    29.266129    -4.127743      C      CD2      +0.000
    -3.205644    29.188351    -3.347222      C      CD2      +0.000
    13.917466   -15.133819    25.174818      C      CD2      +0.000
    14.924212   -14.290340    26.032885      C      CD2      +0.000
    14.477513   -12.867960    26.479141      C      CD2      +0.000
    15.440985   -12.191656    27.332529      C      CD2      +0.000
    15.053419   -10.896800    27.791679      C      CD2      +0.000
    16.135530   -10.197614    28.674892      C      CD2      +0.000
    51.778046    17.497473    39.089420      C      CD2      +0.000
    52.012226    16.629221    37.786545      C      CD2      +0.000
    50.741879    15.854896    37.286022      C      CD2      +0.000
    51.049885    14.737240    36.186619      C      CD2      +0.000
    49.942791    14.095223    35.335106      C      CD2      +0.000
    50.532967    13.355194    34.175701      C      CD2      +0.000
   -19.398571   -12.632351     4.040075      C      CD2      +0.000
   -18.083937   -12.119788     4.347960      C      CD2      +0.000
   -17.021193   -13.222618     4.470281      C      CD2      +0.000
   -15.846609   -12.784111     5.194474      C      CD2      +0.000
   -14.663787   -13.793568     5.166377      C      CD2      +0.000
   -13.280736   -13.067654     5.430715      C      CD2      +0.000
   -17.171419    33.842567   -28.471767      C      CD2      +0.000
   -17.529022    35.268421   -28.423925      C      CD2      +0.000
   -18.989986    35.542801   -28.556919      C      CD2      +0.000
   -19.335054    37.131695   -28.763960      C      CD2      +0.000
   -20.896935    37.419010   -29.097748      C      CD2      +0.000
   -21.228222    38.840954   -29.359234      C      CD2      +0.000
    16.785944    56.902851     7.090521      C      CD2      +0.000
    17.193176    57.848137     8.118308      C      CD2      +0.000
    18.697702    57.812855     8.585468      C      CD2      +0.000
    19.086277    58.809715     9.709881      C      CD2      +0.000
    20.592569    59.133224     9.711281      C      CD2      +0.000
    20.979296    60.598915     9.928629      C      CD2      +0.000
    14.876725    63.669842    -3.405018      C      CD2      +0.000
    15.157750    64.425903    -4.673368      C      CD2      +0.000
    15.371811    65.912712    -4.590621      C      CD2      +0.000
    15.467422    66.668327    -6.045800      C      CD2      +0.000
    16.162226    68.066666    -5.820589      C      CD2      +0.000
    15.861120    69.028557    -6.968002      C      CD2      +0.000
    31.145744    22.335808    21.050716      C      CD2      +0.000
    32.620159    21.916534    21.040855      C      CD2      +0.000
    32.833729    21.079628    22.272390      C      CD2      +0.000
    34.261711    20.437908    22.390217      C      CD2      +0.000
    34.560150    19.579803    23.616306      C      CD2      +0.000
    36.037445    19.019390    23.872334      C      CD2      +0.000
    41.532890    47.596443    21.254286      C      CD2      +0.000
    40.091946    48.054379    20.732677      C      CD2      +0.000
    38.974293    48.093365    21.805696      C      CD2      +0.000
    38.890400    49.383018    22.735153      C      CD2      +0.000
    37.662468    49.330219    23.614941      C      CD2      +0.000
    37.469303    50.589165    24.570807      C      CD2      +0.000
    45.946896    64.716942    20.194530      C      CD2      +0.000
    45.979744    63.710686    19.266552      C      CD2      +0.000
    47.447163    63.279140    18.747772      C      CD2      +0.000
    47.471527    61.972324    17.872375      C      CD2      +0.000
    48.793922    61.862694    17.224945      C      CD2      +0.000
    48.788044    60.626637    16.148121      C      CD2      +0.000
     0.765833    67.176147   -18.347485      C      CD2      +0.000
     0.923994    65.882469   -17.528605      C      CD2      +0.000
    -0.195038    64.871819   -17.712921      C      CD2      +0.000
     0.134417    63.714237   -16.783487      C      CD2      +0.000
    -0.880835    62.670940   -16.680645      C      CD2      +0.000
    -0.515229    61.519539   -15.730284      C      CD2      +0.000
    18.994017    12.503367   -42.249454      C      CD2      +0.000
    18.999384    13.610674   -41.168461      C      CD2      +0.000
    17.577652    14.358948   -40.937462      C      CD2      +0.000
    17.936056    15.578553   -40.030827      C      CD2      +0.000
    16.858809    16.575581   -39.621059      C      CD2      +0.000
    17.383644    17.269697   -38.447117      C      CD2      +0.000
    20.177507    28.596355     3.633405      C      CD2      +0.000
    21.505060    28.858976     2.865063      C      CD2      +0.000
    22.563099    27.820974     3.038568      C      CD2      +0.000
    23.918783    27.968174     2.217198      C      CD2      +0.000
    24.940216    26.893915     2.594068      C      CD2      +0.000
    26.370369    27.097260     2.169112      C      CD2      +0.000
    19.499561    48.599838   -16.242981      C      CD2      +0.000
    17.992903    48.801037   -15.971865      C      CD2      +0.000
    17.030001    48.828220   -17.245787      C      CD2      +0.000
    15.728288    49.540329   -16.973837      C      CD2      +0.000
    14.880383    49.991024   -18.191656      C      CD2      +0.000
    13.546119    50.739002   -17.650570      C      CD2      +0.000
    18.749557    20.585548   -48.496250      C      CD2      +0.000
    19.550339    21.127314   -49.711285      C      CD2      +0.000
    19.319490    22.662127   -49.847900      C      CD2      +0.000
    20.230114    23.317232   -50.993370      C      CD2      +0.000
    19.949917    24.769327   -51.268658      C      CD2      +0.000
    20.857321    25.383200   -52.267555      C      CD2      +0.000
    53.114922    32.083153    60.747700      C      CD2      +0.000
    52.541538    32.918575    59.553562      C      CD2      +0.000
    52.660255    34.376652    59.894604      C      CD2      +0.000
    52.154808    35.264835    58.709747      C      CD2      +0.000
    51.739269    36.664787    59.103722      C      CD2      +0.000
    51.423401    37.569893    57.845795      C      CD2      +0.000
    -5.072365    11.843121   -24.680294      C      CD2      +0.000
    -6.252584    12.838305   -24.546040      C      CD2      +0.000
    -7.246078    12.337981   -23.436420      C      CD2      +0.000
    -8.497966    13.202880   -23.204172      C      CD2      +0.000
    -9.484672    12.601217   -22.323145      C      CD2      +0.000
   -10.456658    13.568236   -21.981613      C      CD2      +0.000